18 21 16 14 21 23 22 16 14 24 15 22 14 14 20 15 15 20 24 24 
23 22 20 21 19 22 22 20 24 15 16 22 18 21 20 24 19 14 19 15 
18 20 17 15 21 17 15 19 15 19 18 16 16 20 20 23 21 18 22 19 
21 21 20 18 20 21 21 21 17 18 21 17 18 18 18 20 18 17 21 17 
20 18 22 18 17 19 22 22 18 21 20 19 19 17 22 18 16 18 20 19 
19 21 23 21 19 15 19 20 17 15 16 21 19 16 15 16 19 16 20 15 
16 18 22 16 17 23 22 21 21 20 20 22 19 21 20 19 17 16 15 15 
19 20 17 18 21 21 21 20 20 19 20 19 19 17 21 19 17 21 18 18 
20 19 18 21 20 18 18 21 19 18 18 19 20 17 19 18 21 17 20 20 
18 19 20 20 17 19 21 17 17 18 17 20 17 18 20 20 17 20 20 20 
23 18 16 17 23 23 16 20 22 17 19 20 19 19 16 21 15 21 18 15 
18 23 21 20 23 17 19 18 21 15 17 20 22 20 22 19 19 21 20 21 
18 24 17 22 18 23 19 16 24 22 19 16 18 21 17 19 24 17 14 20 
24 15 14 20 16 21 15 15 16 16 15 18 20 19 20 23 22 24 20 19 
16 18 17 22 18 21 21 21 20 20 16 22 20 18 21 22 21 22 20 19 
14 21 16 19 14 15 23 14 23 18 24 18 19 20 22 24 16 18 21 21 
20 21 22 17 19 18 19 18 20 18 17 22 20 19 19 18 20 21 16 16 
20 14 20 16 14 18 15 23 24 20 19 20 22 18 21 17 22 21 19 24 
17 16 20 16 18 21 16 20 20 20 18 17 19 20 21 21 18 21 18 17 
19 16 17 18 16 20 18 17 17 20 16 19 22 22 21 17 21 18 22 16 
16 19 16 18 21 23 21 21 22 15 22 20 21 22 18 19 18 16 20 22 
19 18 22 19 19 17 15 17 23 22 18 17 16 17 17 18 16 16 18 18 
14 20 21 21 21 22 23 22 17 23 16 15 16 21 15 23 23 15 17 15 
19 18 19 20 20 19 20 19 18 18 20 20 19 19 18 18 19 18 20 18 
20 18 19 20 19 18 19 19 18 19 20 20 19 18 19 20 19 18 18 20 
15 22 18 19 18 16 15 20 19 18 20 21 19 21 15 16 23 19 23 17 
19 18 17 19 21 21 19 17 21 17 20 19 20 21 18 20 17 20 20 21 
19 18 18 19 18 20 20 18 19 18 20 19 18 19 20 18 18 20 19 20 
20 19 18 19 21 20 20 20 21 21 18 17 20 17 18 18 17 17 18 19 
18 20 18 20 19 21 17 19 18 20 17 20 18 17 20 18 20 21 19 17 
20 19 19 19 20 18 19 19 19 19 19 20 19 19 20 20 19 20 18 19 
22 18 20 18 16 20 21 18 19 19 21 22 21 17 22 17 19 22 21 18 
22 16 19 22 18 19 22 18 20 21 22 16 19 17 17 16 17 22 18 19 
19 18 17 17 18 18 20 18 18 21 21 19 17 17 19 19 19 17 19 21 
21 21 19 17 22 20 21 19 16 21 17 22 21 17 16 22 19 16 16 22 
20 19 21 22 21 21 20 16 17 16 17 22 21 22 21 16 18 17 22 16 
23 21 15 17 16 20 20 18 19 19 15 21 16 20 17 23 24 16 24 22 
18 19 19 19 19 20 20 19 19 18 20 20 20 18 19 20 18 19 19 18 
19 20 20 19 19 18 19 19 20 20 19 20 19 18 20 18 19 20 18 18 
19 21 21 19 18 18 20 20 17 18 20 17 20 21 17 19 18 17 18 17 
18 18 16 18 20 17 18 19 21 18 18 16 22 17 20 20 18 17 19 21 
19 18 17 20 17 20 21 19 17 20 21 18 17 19 20 20 20 21 17 17 
21 17 22 20 22 19 20 16 17 17 16 22 21 20 17 18 18 22 19 17 
21 18 18 21 17 17 18 17 17 17 17 17 18 18 20 17 20 21 17 20 
16 21 18 18 18 21 20 22 17 21 17 19 17 17 19 17 15 17 16 17 
20 19 19 20 20 19 20 20 18 18 18 20 19 20 19 18 20 18 19 20 
19 19 20 22 21 20 18 16 21 18 16 20 21 19 21 21 20 21 18 22 
22 20 14 22 14 21 15 20 17 16 15 21 19 16 17 14 23 15 24 18 
16 16 16 20 20 16 18 18 19 18 17 16 18 16 17 17 22 21 22 19 
17 20 21 17 19 17 20 19 18 17 17 17 21 18 19 17 19 17 18 20 